[VALIDATOR STDOUT]
Type-checking move
...action passes type checking.
Type-checking pick
...action passes type checking.
Type-checking drop
...action passes type checking.
Checking plan: /home/jfan5/Safety-gen/runs/benchmark/optic/grippers_20260215_225302/grippers/optic_results/grippers-n3-r28-o26-s26001.plan
Plan to validate:

Plan size: 96
1:
(pick robot3 ball19 room18 lgripper3)
 
2:
(pick robot3 ball10 room18 rgripper3)
 
3:
(pick robot2 ball4 room11 lgripper2)
 
4:
(pick robot1 ball8 room20 lgripper1)
 
5:
(pick robot1 ball6 room20 rgripper1)
 
6:
(move robot3 room18 room9)
 
7:
(move robot1 room20 room5)
 
8:
(move robot2 room11 room8)
 
9:
(drop robot3 ball10 room9 rgripper3)
 
10:
(drop robot1 ball6 room5 rgripper1)
 
11:
(pick robot2 ball24 room8 rgripper2)
 
12:
(move robot2 room8 room7)
 
13:
(move robot3 room9 room23)
 
14:
(move robot1 room5 room4)
 
15:
(drop robot2 ball24 room7 rgripper2)
 
16:
(drop robot3 ball19 room23 lgripper3)
 
17:
(pick robot1 ball1 room4 rgripper1)
 
18:
(pick robot3 ball23 room23 rgripper3)
 
19:
(drop robot1 ball8 room4 lgripper1)
 
20:
(move robot2 room7 room21)
 
21:
(move robot3 room23 room24)
 
22:
(move robot1 room4 room6)
 
23:
(drop robot2 ball4 room21 lgripper2)
 
24:
(drop robot3 ball23 room24 rgripper3)
 
25:
(pick robot2 ball9 room21 rgripper2)
 
26:
(pick robot3 ball15 room24 lgripper3)
 
27:
(move robot1 room6 room5)
 
28:
(move robot3 room24 room21)
 
29:
(move robot2 room21 room16)
 
30:
(pick robot1 ball22 room5 lgripper1)
 
31:
(drop robot3 ball15 room21 lgripper3)
 
32:
(drop robot2 ball9 room16 rgripper2)
 
33:
(move robot1 room5 room24)
 
34:
(pick robot2 ball20 room16 lgripper2)
 
35:
(drop robot1 ball22 room24 lgripper1)
 
36:
(move robot2 room16 room15)
 
37:
(move robot3 room21 room17)
 
38:
(move robot1 room24 room11)
 
39:
(pick robot3 ball7 room17 lgripper3)
 
40:
(pick robot2 ball16 room15 rgripper2)
 
41:
(drop robot1 ball1 room11 rgripper1)
 
42:
(move robot3 room17 room26)
 
43:
(move robot2 room15 room24)
 
44:
(drop robot3 ball7 room26 lgripper3)
 
45:
(move robot1 room11 room6)
 
46:
(move robot2 room24 room23)
 
47:
(move robot3 room26 room13)
 
48:
(move robot2 room23 room2)
 
49:
(move robot1 room6 room5)
 
50:
(pick robot3 ball14 room13 lgripper3)
 
51:
(pick robot1 ball2 room5 lgripper1)
 
52:
(drop robot2 ball20 room2 lgripper2)
 
53:
(move robot3 room13 room16)
 
54:
(move robot1 room5 room10)
 
55:
(move robot2 room2 room10)
 
56:
(drop robot3 ball14 room16 lgripper3)
 
57:
(drop robot1 ball2 room10 lgripper1)
 
58:
(drop robot2 ball16 room10 rgripper2)
 
59:
(pick robot1 ball26 room10 rgripper1)
 
60:
(pick robot2 ball13 room10 lgripper2)
 
61:
(move robot1 room10 room6)
 
62:
(pick robot2 ball11 room10 rgripper2)
 
63:
(move robot3 room16 room1)
 
64:
(pick robot3 ball21 room1 lgripper3)
 
65:
(move robot2 room10 room23)
 
66:
(move robot1 room6 room24)
 
67:
(drop robot1 ball26 room24 rgripper1)
 
68:
(move robot3 room1 room18)
 
69:
(drop robot2 ball11 room23 rgripper2)
 
70:
(drop robot3 ball21 room18 lgripper3)
 
71:
(pick robot2 ball18 room23 rgripper2)
 
72:
(move robot1 room24 room6)
 
73:
(move robot2 room23 room3)
 
74:
(move robot3 room18 room6)
 
75:
(move robot1 room6 room4)
 
76:
(drop robot2 ball18 room3 rgripper2)
 
77:
(pick robot1 ball3 room4 lgripper1)
 
78:
(move robot3 room6 room4)
 
79:
(move robot2 room3 room28)
 
80:
(move robot1 room4 room2)
 
81:
(move robot3 room4 room3)
 
82:
(drop robot2 ball13 room28 lgripper2)
 
83:
(drop robot1 ball3 room2 lgripper1)
 
84:
(pick robot1 ball17 room2 rgripper1)
 
85:
(pick robot3 ball25 room3 lgripper3)
 
86:
(move robot1 room2 room6)
 
87:
(move robot3 room3 room12)
 
88:
(move robot2 room28 room19)
 
89:
(drop robot1 ball17 room6 rgripper1)
 
90:
(drop robot3 ball25 room12 lgripper3)
 
91:
(pick robot3 ball5 room12 rgripper3)
 
92:
(pick robot2 ball12 room19 lgripper2)
 
93:
(move robot2 room19 room4)
 
94:
(move robot3 room12 room28)
 
95:
(drop robot2 ball12 room4 lgripper2)
 
96:
(drop robot3 ball5 room28 rgripper3)
 

Plan Validation details
-----------------------

Checking next happening (time 1)
Deleting (at ball19 room18)
Deleting (free robot3 lgripper3)
Adding (carry robot3 ball19 lgripper3)

Checking next happening (time 2)
Deleting (at ball10 room18)
Deleting (free robot3 rgripper3)
Adding (carry robot3 ball10 rgripper3)

Checking next happening (time 3)
Deleting (at ball4 room11)
Deleting (free robot2 lgripper2)
Adding (carry robot2 ball4 lgripper2)

Checking next happening (time 4)
Deleting (at ball8 room20)
Deleting (free robot1 lgripper1)
Adding (carry robot1 ball8 lgripper1)

Checking next happening (time 5)
Deleting (at ball6 room20)
Deleting (free robot1 rgripper1)
Adding (carry robot1 ball6 rgripper1)

Checking next happening (time 6)
Deleting (at-robby robot3 room18)
Adding (at-robby robot3 room9)

Checking next happening (time 7)
Deleting (at-robby robot1 room20)
Adding (at-robby robot1 room5)

Checking next happening (time 8)
Deleting (at-robby robot2 room11)
Adding (at-robby robot2 room8)

Checking next happening (time 9)
Deleting (carry robot3 ball10 rgripper3)
Adding (at ball10 room9)
Adding (free robot3 rgripper3)

Checking next happening (time 10)
Deleting (carry robot1 ball6 rgripper1)
Adding (at ball6 room5)
Adding (free robot1 rgripper1)

Checking next happening (time 11)
Deleting (at ball24 room8)
Deleting (free robot2 rgripper2)
Adding (carry robot2 ball24 rgripper2)

Checking next happening (time 12)
Deleting (at-robby robot2 room8)
Adding (at-robby robot2 room7)

Checking next happening (time 13)
Deleting (at-robby robot3 room9)
Adding (at-robby robot3 room23)

Checking next happening (time 14)
Deleting (at-robby robot1 room5)
Adding (at-robby robot1 room4)

Checking next happening (time 15)
Deleting (carry robot2 ball24 rgripper2)
Adding (at ball24 room7)
Adding (free robot2 rgripper2)

Checking next happening (time 16)
Deleting (carry robot3 ball19 lgripper3)
Adding (at ball19 room23)
Adding (free robot3 lgripper3)

Checking next happening (time 17)
Deleting (at ball1 room4)
Deleting (free robot1 rgripper1)
Adding (carry robot1 ball1 rgripper1)

Checking next happening (time 18)
Deleting (at ball23 room23)
Deleting (free robot3 rgripper3)
Adding (carry robot3 ball23 rgripper3)

Checking next happening (time 19)
Deleting (carry robot1 ball8 lgripper1)
Adding (at ball8 room4)
Adding (free robot1 lgripper1)

Checking next happening (time 20)
Deleting (at-robby robot2 room7)
Adding (at-robby robot2 room21)

Checking next happening (time 21)
Deleting (at-robby robot3 room23)
Adding (at-robby robot3 room24)

Checking next happening (time 22)
Deleting (at-robby robot1 room4)
Adding (at-robby robot1 room6)

Checking next happening (time 23)
Deleting (carry robot2 ball4 lgripper2)
Adding (at ball4 room21)
Adding (free robot2 lgripper2)

Checking next happening (time 24)
Deleting (carry robot3 ball23 rgripper3)
Adding (at ball23 room24)
Adding (free robot3 rgripper3)

Checking next happening (time 25)
Deleting (at ball9 room21)
Deleting (free robot2 rgripper2)
Adding (carry robot2 ball9 rgripper2)

Checking next happening (time 26)
Deleting (at ball15 room24)
Deleting (free robot3 lgripper3)
Adding (carry robot3 ball15 lgripper3)

Checking next happening (time 27)
Deleting (at-robby robot1 room6)
Adding (at-robby robot1 room5)

Checking next happening (time 28)
Deleting (at-robby robot3 room24)
Adding (at-robby robot3 room21)

Checking next happening (time 29)
Deleting (at-robby robot2 room21)
Adding (at-robby robot2 room16)

Checking next happening (time 30)
Deleting (at ball22 room5)
Deleting (free robot1 lgripper1)
Adding (carry robot1 ball22 lgripper1)

Checking next happening (time 31)
Deleting (carry robot3 ball15 lgripper3)
Adding (at ball15 room21)
Adding (free robot3 lgripper3)

Checking next happening (time 32)
Deleting (carry robot2 ball9 rgripper2)
Adding (at ball9 room16)
Adding (free robot2 rgripper2)

Checking next happening (time 33)
Deleting (at-robby robot1 room5)
Adding (at-robby robot1 room24)

Checking next happening (time 34)
Deleting (at ball20 room16)
Deleting (free robot2 lgripper2)
Adding (carry robot2 ball20 lgripper2)

Checking next happening (time 35)
Deleting (carry robot1 ball22 lgripper1)
Adding (at ball22 room24)
Adding (free robot1 lgripper1)

Checking next happening (time 36)
Deleting (at-robby robot2 room16)
Adding (at-robby robot2 room15)

Checking next happening (time 37)
Deleting (at-robby robot3 room21)
Adding (at-robby robot3 room17)

Checking next happening (time 38)
Deleting (at-robby robot1 room24)
Adding (at-robby robot1 room11)

Checking next happening (time 39)
Deleting (at ball7 room17)
Deleting (free robot3 lgripper3)
Adding (carry robot3 ball7 lgripper3)

Checking next happening (time 40)
Deleting (at ball16 room15)
Deleting (free robot2 rgripper2)
Adding (carry robot2 ball16 rgripper2)

Checking next happening (time 41)
Deleting (carry robot1 ball1 rgripper1)
Adding (at ball1 room11)
Adding (free robot1 rgripper1)

Checking next happening (time 42)
Deleting (at-robby robot3 room17)
Adding (at-robby robot3 room26)

Checking next happening (time 43)
Deleting (at-robby robot2 room15)
Adding (at-robby robot2 room24)

Checking next happening (time 44)
Deleting (carry robot3 ball7 lgripper3)
Adding (at ball7 room26)
Adding (free robot3 lgripper3)

Checking next happening (time 45)
Deleting (at-robby robot1 room11)
Adding (at-robby robot1 room6)

Checking next happening (time 46)
Deleting (at-robby robot2 room24)
Adding (at-robby robot2 room23)

Checking next happening (time 47)
Deleting (at-robby robot3 room26)
Adding (at-robby robot3 room13)

Checking next happening (time 48)
Deleting (at-robby robot2 room23)
Adding (at-robby robot2 room2)

Checking next happening (time 49)
Deleting (at-robby robot1 room6)
Adding (at-robby robot1 room5)

Checking next happening (time 50)
Deleting (at ball14 room13)
Deleting (free robot3 lgripper3)
Adding (carry robot3 ball14 lgripper3)

Checking next happening (time 51)
Deleting (at ball2 room5)
Deleting (free robot1 lgripper1)
Adding (carry robot1 ball2 lgripper1)

Checking next happening (time 52)
Deleting (carry robot2 ball20 lgripper2)
Adding (at ball20 room2)
Adding (free robot2 lgripper2)

Checking next happening (time 53)
Deleting (at-robby robot3 room13)
Adding (at-robby robot3 room16)

Checking next happening (time 54)
Deleting (at-robby robot1 room5)
Adding (at-robby robot1 room10)

Checking next happening (time 55)
Deleting (at-robby robot2 room2)
Adding (at-robby robot2 room10)

Checking next happening (time 56)
Deleting (carry robot3 ball14 lgripper3)
Adding (at ball14 room16)
Adding (free robot3 lgripper3)

Checking next happening (time 57)
Deleting (carry robot1 ball2 lgripper1)
Adding (at ball2 room10)
Adding (free robot1 lgripper1)

Checking next happening (time 58)
Deleting (carry robot2 ball16 rgripper2)
Adding (at ball16 room10)
Adding (free robot2 rgripper2)

Checking next happening (time 59)
Deleting (at ball26 room10)
Deleting (free robot1 rgripper1)
Adding (carry robot1 ball26 rgripper1)

Checking next happening (time 60)
Deleting (at ball13 room10)
Deleting (free robot2 lgripper2)
Adding (carry robot2 ball13 lgripper2)

Checking next happening (time 61)
Deleting (at-robby robot1 room10)
Adding (at-robby robot1 room6)

Checking next happening (time 62)
Deleting (at ball11 room10)
Deleting (free robot2 rgripper2)
Adding (carry robot2 ball11 rgripper2)

Checking next happening (time 63)
Deleting (at-robby robot3 room16)
Adding (at-robby robot3 room1)

Checking next happening (time 64)
Deleting (at ball21 room1)
Deleting (free robot3 lgripper3)
Adding (carry robot3 ball21 lgripper3)

Checking next happening (time 65)
Deleting (at-robby robot2 room10)
Adding (at-robby robot2 room23)

Checking next happening (time 66)
Deleting (at-robby robot1 room6)
Adding (at-robby robot1 room24)

Checking next happening (time 67)
Deleting (carry robot1 ball26 rgripper1)
Adding (at ball26 room24)
Adding (free robot1 rgripper1)

Checking next happening (time 68)
Deleting (at-robby robot3 room1)
Adding (at-robby robot3 room18)

Checking next happening (time 69)
Deleting (carry robot2 ball11 rgripper2)
Adding (at ball11 room23)
Adding (free robot2 rgripper2)

Checking next happening (time 70)
Deleting (carry robot3 ball21 lgripper3)
Adding (at ball21 room18)
Adding (free robot3 lgripper3)

Checking next happening (time 71)
Deleting (at ball18 room23)
Deleting (free robot2 rgripper2)
Adding (carry robot2 ball18 rgripper2)

Checking next happening (time 72)
Deleting (at-robby robot1 room24)
Adding (at-robby robot1 room6)

Checking next happening (time 73)
Deleting (at-robby robot2 room23)
Adding (at-robby robot2 room3)

Checking next happening (time 74)
Deleting (at-robby robot3 room18)
Adding (at-robby robot3 room6)

Checking next happening (time 75)
Deleting (at-robby robot1 room6)
Adding (at-robby robot1 room4)

Checking next happening (time 76)
Deleting (carry robot2 ball18 rgripper2)
Adding (at ball18 room3)
Adding (free robot2 rgripper2)

Checking next happening (time 77)
Deleting (at ball3 room4)
Deleting (free robot1 lgripper1)
Adding (carry robot1 ball3 lgripper1)

Checking next happening (time 78)
Deleting (at-robby robot3 room6)
Adding (at-robby robot3 room4)

Checking next happening (time 79)
Deleting (at-robby robot2 room3)
Adding (at-robby robot2 room28)

Checking next happening (time 80)
Deleting (at-robby robot1 room4)
Adding (at-robby robot1 room2)

Checking next happening (time 81)
Deleting (at-robby robot3 room4)
Adding (at-robby robot3 room3)

Checking next happening (time 82)
Deleting (carry robot2 ball13 lgripper2)
Adding (at ball13 room28)
Adding (free robot2 lgripper2)

Checking next happening (time 83)
Deleting (carry robot1 ball3 lgripper1)
Adding (at ball3 room2)
Adding (free robot1 lgripper1)

Checking next happening (time 84)
Deleting (at ball17 room2)
Deleting (free robot1 rgripper1)
Adding (carry robot1 ball17 rgripper1)

Checking next happening (time 85)
Deleting (at ball25 room3)
Deleting (free robot3 lgripper3)
Adding (carry robot3 ball25 lgripper3)

Checking next happening (time 86)
Deleting (at-robby robot1 room2)
Adding (at-robby robot1 room6)

Checking next happening (time 87)
Deleting (at-robby robot3 room3)
Adding (at-robby robot3 room12)

Checking next happening (time 88)
Deleting (at-robby robot2 room28)
Adding (at-robby robot2 room19)

Checking next happening (time 89)
Deleting (carry robot1 ball17 rgripper1)
Adding (at ball17 room6)
Adding (free robot1 rgripper1)

Checking next happening (time 90)
Deleting (carry robot3 ball25 lgripper3)
Adding (at ball25 room12)
Adding (free robot3 lgripper3)

Checking next happening (time 91)
Deleting (at ball5 room12)
Deleting (free robot3 rgripper3)
Adding (carry robot3 ball5 rgripper3)

Checking next happening (time 92)
Deleting (at ball12 room19)
Deleting (free robot2 lgripper2)
Adding (carry robot2 ball12 lgripper2)

Checking next happening (time 93)
Deleting (at-robby robot2 room19)
Adding (at-robby robot2 room4)

Checking next happening (time 94)
Deleting (at-robby robot3 room12)
Adding (at-robby robot3 room28)

Checking next happening (time 95)
Deleting (carry robot2 ball12 lgripper2)
Adding (at ball12 room4)
Adding (free robot2 lgripper2)

Checking next happening (time 96)
Deleting (carry robot3 ball5 rgripper3)
Adding (at ball5 room28)
Adding (free robot3 rgripper3)
Plan executed successfully - checking goal
Plan valid
Final value: 96 

Successful plans:
Value: 96
 /home/jfan5/Safety-gen/runs/benchmark/optic/grippers_20260215_225302/grippers/optic_results/grippers-n3-r28-o26-s26001.plan 96
